p wcnf 10 51 370
370 1 2 0
370 1 3 0
370 1 4 0
370 1 5 0
370 1 6 0
370 1 7 0
370 1 9 0
370 1 10 0
370 2 3 0
370 2 4 0
370 2 5 0
370 2 6 0
370 2 7 0
370 2 8 0
370 2 9 0
370 2 10 0
370 3 4 0
370 3 5 0
370 3 6 0
370 3 7 0
370 3 8 0
370 3 10 0
370 4 5 0
370 4 6 0
370 4 7 0
370 4 8 0
370 4 9 0
370 4 10 0
370 5 6 0
370 5 7 0
370 5 8 0
370 5 10 0
370 6 7 0
370 6 8 0
370 6 10 0
370 7 8 0
370 7 9 0
370 7 10 0
370 8 9 0
370 8 10 0
370 9 10 0
33 -1 0
33 -2 0
35 -3 0
35 -4 0
37 -5 0
38 -6 0
38 -7 0
39 -8 0
40 -9 0
41 -10 0
